Route #1: 1 37 34 35 18 4 15 27 1
Route #2: 1 9 22 13 33 38 47 5 1
Route #3: 1 26 42 53 25 45 51 49 1
Route #4: 1 11 6 54 41 39 17 40 10 2 1
Route #5: 1 8 31 29 20 28 14 1
Route #6: 1 30 19 24 55 23 43 32 1
Route #7: 1 21 52 3 12 16 1
Route #8: 1 44 46 7 1
Route #9: 1 48 36 50 1
cost 1306
